(set-info :source |printed by MathSAT|)
(declare-fun |.x{86}| () Int)
(declare-fun |.y{7}| () Int)
(declare-fun |.y{6}| () Int)
(declare-fun |.y{8}| () Int)
(declare-fun |.x{87}| () (Array Int Int))
(declare-fun |.y{9}| () (Array Int Int))
(declare-fun |.x{83}| () Int)
(declare-fun |.y{10}| () Int)
(declare-fun |.x{79}| () Int)
(declare-fun |.y{11}| () Int)
(declare-fun |.loc{3}| () Bool)
(declare-fun |.loc{5}| () Bool)
(declare-fun |.loc{4}| () Bool)
(declare-fun |.loc{6}| () Bool)
(declare-fun |.x{84}| () Int)
(declare-fun |.x{88}| () Int)
(declare-fun |.x{85}| () Int)
(define-fun .def_18 () Bool (! |.loc{3}| :next |.loc{5}|))
(define-fun .def_61 () Bool (not .def_18))
(define-fun .def_20 () Bool (! |.loc{4}| :next |.loc{6}|))
(define-fun .def_33 () Bool (not .def_20))
(define-fun .def_149 () Bool (! (and .def_33 .def_61) :init true))
(define-fun .def_8 () Int (! |.x{86}| :next |.y{7}|))
(define-fun .def_77 () Bool (<= .def_8 0))
(define-fun .def_78 () Bool (not .def_77))
(define-fun .def_12 () (Array Int Int) (! |.x{87}| :next |.y{9}|))
(define-fun .def_72 () Int (select .def_12 |.x{84}|))
(define-fun .def_74 () Int (select .def_12 |.x{88}|))
(define-fun .def_75 () Bool (<= .def_74 .def_72))
(define-fun .def_133 () Bool (and .def_75 .def_78))
(define-fun .def_80 () Int (* (- 1) |.x{88}|))
(define-fun .def_84 () Int (+ .def_80 |.x{85}|))
(define-fun .def_85 () Int (+ .def_8 .def_84))
(define-fun .def_86 () Bool (= .def_85 0))
(define-fun .def_134 () Bool (and .def_86 .def_133))
(define-fun .def_88 () Bool (<= |.x{88}| 0))
(define-fun .def_89 () Bool (not .def_88))
(define-fun .def_90 () Bool (or .def_77 .def_89))
(define-fun .def_135 () Bool (and .def_90 .def_134))
(define-fun .def_14 () Int (! |.x{83}| :next |.y{10}|))
(define-fun .def_16 () Int (! |.x{79}| :next |.y{11}|))
(define-fun .def_94 () Bool (<= .def_16 .def_14))
(define-fun .def_95 () Bool (not .def_94))
(define-fun .def_136 () Bool (and .def_95 .def_135))
(define-fun .def_137 () Bool (and .def_20 .def_136))
(define-fun .def_99 () Bool (<= |.x{85}| .def_14))
(define-fun .def_100 () Bool (not .def_99))
(define-fun .def_138 () Bool (and .def_100 .def_137))
(define-fun .def_139 () Bool (and .def_61 .def_138))
(define-fun .def_104 () Bool (<= .def_16 |.x{85}|))
(define-fun .def_105 () Bool (not .def_104))
(define-fun .def_140 () Bool (and .def_105 .def_139))
(define-fun .def_141 () Bool (and |.loc{5}| .def_140))
(define-fun .def_49 () Bool (<= |.x{84}| 0))
(define-fun .def_50 () Bool (not .def_49))
(define-fun .def_115 () Bool (or .def_50 .def_77))
(define-fun .def_142 () Bool (and .def_115 .def_141))
(define-fun .def_40 () Int (* (- 1) |.x{84}|))
(define-fun .def_119 () Int (+ .def_14 .def_40))
(define-fun .def_120 () Int (+ .def_8 .def_119))
(define-fun .def_121 () Bool (= .def_120 0))
(define-fun .def_143 () Bool (and .def_121 .def_142))
(define-fun .def_131 () Bool (= .def_14 |.y{11}|))
(define-fun .def_10 () Int (! |.y{6}| :next |.y{8}|))
(define-fun .def_128 () Bool (= |.y{7}| .def_10))
(define-fun .def_124 () Bool (= |.y{10}| 0))
(define-fun .def_92 () Bool (not |.loc{5}|))
(define-fun .def_123 () Bool (and .def_33 .def_92))
(define-fun .def_125 () Bool (and .def_123 .def_124))
(define-fun .def_126 () Bool (and .def_18 .def_125))
(define-fun .def_30 () Bool (<= .def_14 .def_8))
(define-fun .def_127 () Bool (and .def_30 .def_126))
(define-fun .def_129 () Bool (and .def_127 .def_128))
(define-fun .def_102 () Bool (= .def_12 |.y{9}|))
(define-fun .def_130 () Bool (and .def_102 .def_129))
(define-fun .def_132 () Bool (and .def_130 .def_131))
(define-fun .def_144 () Bool (or .def_132 .def_143))
(define-fun .def_113 () Bool (= .def_16 |.y{11}|))
(define-fun .def_111 () Bool (= .def_8 |.y{7}|))
(define-fun .def_107 () Int (* (- 1) |.y{10}|))
(define-fun .def_108 () Int (+ .def_14 .def_107))
(define-fun .def_109 () Bool (= .def_108 (- 1)))
(define-fun .def_76 () Bool (not .def_75))
(define-fun .def_79 () Bool (and .def_76 .def_78))
(define-fun .def_87 () Bool (and .def_79 .def_86))
(define-fun .def_91 () Bool (and .def_87 .def_90))
(define-fun .def_93 () Bool (and .def_91 .def_92))
(define-fun .def_96 () Bool (and .def_93 .def_95))
(define-fun .def_97 () Bool (and .def_20 .def_96))
(define-fun .def_98 () Bool (and .def_61 .def_97))
(define-fun .def_101 () Bool (and .def_98 .def_100))
(define-fun .def_103 () Bool (and .def_101 .def_102))
(define-fun .def_106 () Bool (and .def_103 .def_105))
(define-fun .def_110 () Bool (and .def_106 .def_109))
(define-fun .def_112 () Bool (and .def_110 .def_111))
(define-fun .def_114 () Bool (and .def_112 .def_113))
(define-fun .def_116 () Bool (and .def_114 .def_115))
(define-fun .def_122 () Bool (and .def_116 .def_121))
(define-fun .def_145 () Bool (or .def_122 .def_144))
(define-fun .def_146 () Bool (and |.loc{6}| .def_145))
(define-fun .def_68 () Bool (<= |.y{10}| 0))
(define-fun .def_69 () Bool (not .def_68))
(define-fun .def_65 () Bool (<= |.y{8}| 0))
(define-fun .def_66 () Bool (not .def_65))
(define-fun .def_63 () Bool (= |.y{7}| 0))
(define-fun .def_46 () Bool (not |.loc{6}|))
(define-fun .def_60 () Bool (and .def_33 .def_46))
(define-fun .def_62 () Bool (and .def_60 .def_61))
(define-fun .def_64 () Bool (and .def_62 .def_63))
(define-fun .def_67 () Bool (and .def_64 .def_66))
(define-fun .def_70 () Bool (and .def_67 .def_69))
(define-fun .def_71 () Bool (and |.loc{5}| .def_70))
(define-fun .def_147 () Bool (or .def_71 .def_146))
(define-fun .def_57 () Bool (= .def_14 |.y{10}|))
(define-fun .def_55 () Bool (= .def_10 |.y{8}|))
(define-fun .def_48 () Bool (<= .def_10 0))
(define-fun .def_53 () Bool (not .def_48))
(define-fun .def_51 () Bool (or .def_48 .def_50))
(define-fun .def_41 () Int (+ .def_10 .def_40))
(define-fun .def_42 () Int (+ .def_8 .def_41))
(define-fun .def_43 () Bool (= .def_42 0))
(define-fun .def_31 () Bool (not .def_30))
(define-fun .def_26 () Int (* (- 1) |.y{7}|))
(define-fun .def_27 () Int (+ .def_8 .def_26))
(define-fun .def_28 () Bool (= .def_27 (- 1)))
(define-fun .def_23 () (Array Int Int) (store .def_12 |.x{84}| .def_8))
(define-fun .def_24 () Bool (= |.y{9}| .def_23))
(define-fun .def_29 () Bool (and .def_24 .def_28))
(define-fun .def_32 () Bool (and .def_29 .def_31))
(define-fun .def_34 () Bool (and .def_32 .def_33))
(define-fun .def_44 () Bool (and .def_34 .def_43))
(define-fun .def_45 () Bool (and .def_18 .def_44))
(define-fun .def_47 () Bool (and .def_45 .def_46))
(define-fun .def_52 () Bool (and .def_47 .def_51))
(define-fun .def_54 () Bool (and .def_52 .def_53))
(define-fun .def_56 () Bool (and .def_54 .def_55))
(define-fun .def_58 () Bool (and .def_56 .def_57))
(define-fun .def_59 () Bool (and |.loc{5}| .def_58))
(define-fun .def_148 () Bool (! (or .def_59 .def_147) :trans true))
(define-fun .def_150 () Bool (and .def_18 .def_20))
(define-fun .def_151 () Bool (! (not .def_150) :invar-property 0))
(assert true)
